es_decr_min = int_search([es[12],es[13],es[8],es[2],es[6],es[11],es[9],es[5],es[3],es[4],es[7],es[1],es[10],vs[1],vs[6],vs[7],vs[3],vs[12],vs[10],vs[8],vs[5],vs[13],vs[14],vs[11],vs[2],vs[9],vs[4]], input_order, indomain_min, complete);
nbV = 14;
nbE = 13;
nbT = 10;
adj = [|false,false,false,false,false,false,false,false,false,false,false,true,false
|false,false,false,true,false,false,false,false,false,false,false,false,false
|false,true,false,false,false,false,false,false,false,false,false,false,false
|false,false,false,false,false,false,false,false,false,true,false,false,false
|false,false,false,false,true,true,false,false,false,false,false,false,false
|false,false,false,false,false,false,false,false,false,false,false,false,true
|false,false,false,false,false,false,false,false,false,false,true,false,true
|false,false,false,false,false,false,true,true,false,false,false,false,false
|true,false,false,false,false,false,false,false,false,false,false,false,false
|false,false,true,false,false,false,false,true,false,false,false,false,false
|true,false,true,false,false,true,false,false,false,false,false,false,false
|false,false,false,true,true,false,false,false,false,false,false,true,false
|false,true,false,false,false,false,true,false,true,false,false,false,false
|false,false,false,false,false,false,false,false,true,true,true,false,false
|];
endnodes = [|false,false,false,false,false,false,false,false,true,false,true,false,false,false
|false,false,true,false,false,false,false,false,false,false,false,false,true,false
|false,false,false,false,false,false,false,false,false,true,true,false,false,false
|false,true,false,false,false,false,false,false,false,false,false,true,false,false
|false,false,false,false,true,false,false,false,false,false,false,true,false,false
|false,false,false,false,true,false,false,false,false,false,true,false,false,false
|false,false,false,false,false,false,false,true,false,false,false,false,true,false
|false,false,false,false,false,false,false,true,false,true,false,false,false,false
|false,false,false,false,false,false,false,false,false,false,false,false,true,true
|false,false,false,true,false,false,false,false,false,false,false,false,false,true
|false,false,false,false,false,false,true,false,false,false,false,false,false,true
|true,false,false,false,false,false,false,false,false,false,false,true,false,false
|false,false,false,false,false,true,true,false,false,false,false,false,false,false
|];
terminals = {1,2,3,4,5,6,7,8,9,10};
ws = [17987,270834,75210,66087,144774,207205,58915,411613,165630,29,180377,581580,535558];
cs = [4,10,3,4,9,5,4,8,3,5,6,8,8];
ds = [0,2,2,2,1,1,2,3,2,3,1,0,0,0];
